p cnf 39 26
2 28 -31 0
-2 -28 0
-2 31 0
4 -21 33 0
4 -28 33 0
-4 -33 0
-4 21 28 0
29 6 0
6 31 7 0
-6 -7 0
-6 -31 0
7 33 35 0
-7 -35 0
-7 -33 0
-7 30 -33 0
25 13 0
13 24 29 0
13 24 -39 0
-13 -29 39 0
-13 -24 0
-21 16 0
16 39 0
16 -23 0
-16 23 -39 0
19 -23 0
-19 23 0
